Test: fpga10_9_sat.cnf
Options: -no-inverting-opt -sym-usage-var-bump
WARNING: for repeatability, setting FPU to use double precision
============================[ Problem Statistics ]=============================
|                                                                             |
|  Number of symmetries:           23                                         |
|  Number of invertingSyms:         0                                         |
|  Number of variables:           135                                         |
|  Number of clauses:             549                                         |
|  Parse time:                   0.00 s                                       |
|                                                                             |
============================[ Search Statistics ]==============================
| Conflicts |          ORIGINAL         |          LEARNT          | Progress |
|           |    Vars  Clauses Literals |    Limit  Clauses Lit/Cl |          |
===============================================================================
|       100 |     135      549     1485 |      201      242     30 |  0.006 % |
===============================================================================
restarts              : 2
conflicts             : 109            (27250 /sec)
symconflicts          : 26             (6500 /sec)
decisions             : 267            (0.00 % random) (66750 /sec)
propagations          : 2164           (541000 /sec)
sympropagations       : 152            (38000 /sec)
conflict literals     : 3285           (1.94 % deleted)
literals     : 3285           (1.94 % deleted)

HEURISTIC USAGES
random                : 0           
activity w/ lookahead : 0           
activity no lookahead : 0           
original sp           : 266         
sym count             : 0           

Memory used           : 5.00 MB
CPU time              : 0.004 s

SATISFIABLE
